qe/outputs/qe/qe_queries/T=5,eliminate=[I_0,I_1,I_2,I_3,I_4,L_1,L_2,L_3,L_4,B].smt2
; benchmark generated from python API
(set-info :status unknown)
(declare-fun L_0 () Real)
(declare-fun C () Real)
(declare-fun S_4 () Real)
(declare-fun A_3 () Real)
(declare-fun S_3 () Real)
(declare-fun A_2 () Real)
(declare-fun S_2 () Real)
(declare-fun A_1 () Real)
(declare-fun S_1 () Real)
(declare-fun A_0 () Real)
(declare-fun S_0 () Real)
(declare-fun A_4 () Real)
(assert
 (let ((?x1903 (* (/ 1.0 2.0) A_2)))
 (let ((?x1865 (* (- (/ 1.0 2.0)) A_0)))
 (let ((?x1857 (* (/ 1.0 2.0) S_0)))
 (let ((?x1877 (* (- (/ 1.0 2.0)) A_4)))
 (let ((?x1908 (* (- (/ 1.0 2.0)) S_4)))
 (let ((?x1886 (* (/ 1.0 2.0) A_1)))
 (let (($x2575 (<= (+ A_1 (* 2.0 C) (* (- 1.0) S_4) (* (- 1.0) L_0)) 0.0)))
 (let (($x1868 (<= (+ A_3 (* (- 1.0) A_4)) 0.0)))
 (let (($x1277 (<= (+ (* (- 1.0) S_4) A_0 (* 3.0 C) (* (- 1.0) L_0)) 0.0)))
 (let (($x48572 (or $x1277 $x1868 (<= (+ C A_2 (* (- 1.0) A_3)) 0.0) $x2575 (<= (+ ?x1886 (* (/ 3.0 2.0) C) ?x1908 ?x1877 ?x1857 ?x1865 ?x1903) 0.0))))
 (let (($x4799 (<= (+ A_2 C (* (- 1.0) S_4) (* (- 1.0) A_1) S_1) 0.0)))
 (let (($x2131 (<= (+ (* 2.0 C) (* (- 1.0) S_4) S_1) 0.0)))
 (let (($x2199 (<= (+ ?x1886 C ?x1908 ?x1877 ?x1857 ?x1865 (* (/ 1.0 2.0) A_3)) 0.0)))
 (let (($x1539 (<= (+ A_2 (* (- 1.0) A_1) (* (- 1.0) C)) 0.0)))
 (let (($x6172 (<= (+ S_4 (* (- 1.0) A_4) A_2 (* (- 1.0) S_3)) 0.0)))
 (let ((?x1872 (* (/ 1.0 2.0) C)))
 (let ((?x1243 (* (- 1.0) S_3)))
 (let ((?x1879 (* (/ 1.0 2.0) S_4)))
 (let (($x1722 (<= (+ A_1 ?x1243 C (* (- 1.0) L_0)) 0.0)))
 (let (($x1303 (<= (+ A_0 (* 2.0 C) (* (- 1.0) L_0) ?x1243) 0.0)))
 (let (($x22163 (or $x1303 $x1722 (<= (+ ?x1879 ?x1877 ?x1886 ?x1243 ?x1872 ?x1857 ?x1865 ?x1903) 0.0) $x6172)))
 (let ((?x2321 (* (/ 1.0 2.0) A_3)))
 (let ((?x1910 (* (- (/ 1.0 2.0)) A_1)))
 (let ((?x4956 (* (- (/ 1.0 2.0)) L_0)))
 (let ((?x1912 (* (/ 1.0 2.0) A_0)))
 (let (($x4947 (<= (+ ?x1903 ?x1879 ?x1877 ?x1243 ?x1912 ?x4956 ?x1910 ?x2321) 0.0)))
 (let (($x1709 (<= (+ A_1 C (* (- 1.0) A_2)) 0.0)))
 (let (($x1345 (<= (+ A_0 (* 2.0 C) (* (- 1.0) A_2)) 0.0)))
 (let (($x1307 (not $x1345)))
 (let (($x1196 (<= (+ ?x1903 (* (- (/ 1.0 2.0)) C) ?x1879 ?x1877 ?x1243 ?x1857 ?x1865 ?x2321) 0.0)))
 (let (($x51062 (or $x1196 $x1303 $x1307 $x1709 $x4947 (not (<= (+ ?x1243 S_0 (* (- 1.0) A_0) A_2) 0.0)))))
 (let (($x7041 (<= (+ A_3 S_4 (* (- 1.0) A_4) ?x1243 (* (- 1.0) C)) 0.0)))
 (let (($x5108 (<= (+ (* (- 1.0) C) (* (- 2.0) A_0) L_0 S_0 A_1) 0.0)))
 (let (($x3018 (<= (+ A_2 ?x1243 (* (- 1.0) L_0)) 0.0)))
 (let (($x1774 (<= (+ A_1 (* (- 1.0) C) (* (- 1.0) A_0)) 0.0)))
 (let (($x3859 (<= (+ C A_2 ?x1243 A_0 (* (- 1.0) L_0) (* (- 1.0) A_1)) 0.0)))
 (let (($x3051 (<= (+ A_2 C (* (- 1.0) S_4) (* (- 1.0) L_0)) 0.0)))
 (let (($x1741 (not $x1709)))
 (let (($x1512 (not $x1539)))
 (let (($x2451 (<= (+ A_1 (* 2.0 C) (* (- 1.0) A_4)) 0.0)))
 (let (($x4759 (<= (+ A_2 ?x1243 (* (- 1.0) A_1) S_1) 0.0)))
 (let (($x2167 (<= (+ C ?x1243 S_1) 0.0)))
 (let (($x4949 (<= (+ ?x1903 C ?x1908 ?x1877 ?x1912 ?x4956 ?x1910 ?x2321) 0.0)))
 (let (($x4540 (<= (+ ?x1903 ?x1872 ?x1908 ?x1877 ?x1857 ?x1865 ?x2321) 0.0)))
 (let (($x12317 (<= (+ A_3 (* (- 1.0) S_4) (* (- 1.0) A_1) (* (- 1.0) C) S_2) 0.0)))
 (let (($x7250 (<= (+ (* (- 1.0) A_1) S_2 (* (- 1.0) S_1) (* (- 1.0) C) A_0) 0.0)))
 (let (($x4313 (<= (+ C (* (- 1.0) S_4) S_2) 0.0)))
 (let (($x49980 (or $x4313 $x7250 (not (<= (+ A_2 (* (- 1.0) A_0) (* (- 1.0) S_2) S_1) 0.0)) $x12317)))
 (let (($x7543 (<= (+ A_3 (* (- 1.0) S_4) (* (- 1.0) A_2) S_2) 0.0)))
 (let ((?x881 (* (- 1.0) A_2)))
 (let ((?x1328 (* (- 1.0) S_1)))
 (let ((?x4171 (* 2.0 S_2)))
 (let ((?x875 (* (- 1.0) A_1)))
 (let ((?x1325 (* (- 1.0) C)))
 (let ((?x1314 (* (- 1.0) S_4)))
 (let (($x10956 (<= (+ A_2 (* (- 1.0) A_0) (* (- 1.0) S_2) S_1) 0.0)))
 (let (($x49102 (or $x4313 $x7250 $x10956 (<= (+ A_3 ?x1314 ?x1325 ?x875 ?x4171 ?x1328 A_0 ?x881) 0.0))))
 (let (($x48156 (or $x1303 $x1539 $x1722 (<= (+ ?x1886 ?x1879 ?x1877 ?x1243 ?x1857 ?x1865 ?x2321) 0.0) $x7041)))
 (let (($x1544 (<= (+ (* (- 1.0) A_3) A_2) 0.0)))
 (let (($x10309 (<= (+ (* (- (/ 1.0 2.0)) A_3) ?x1886 (* (- (/ 1.0 2.0)) S_3) ?x1872 ?x1857 ?x1865 ?x1903) 0.0)))
 (let (($x6845 (<= (+ ?x875 A_0) 0.0)))
 (let (($x50402 (or $x2131 $x4799 $x6845 (<= (+ A_3 ?x1314 ?x875 S_1) 0.0) (<= (+ A_3 ?x1314 C ?x875 S_1 A_0 ?x881) 0.0))))
 (let (($x50121 (or $x4313 (<= (+ ?x881 ?x1325 A_1 S_2 L_0 (* (- 1.0) A_0)) 0.0) $x7543)))
 (let (($x7118 (<= (+ A_3 S_4 (* (- 1.0) A_4) (* (- 1.0) S_2) (* (- 2.0) C)) 0.0)))
 (let (($x2056 (<= (+ ?x1886 ?x1325 ?x1879 ?x1877 (* (- 1.0) S_2) ?x1857 ?x1865 ?x2321) 0.0)))
 (let (($x1320 (<= (+ A_0 C (* (- 1.0) L_0) (* (- 1.0) S_2)) 0.0)))
 (let (($x1343 (<= (+ A_0 C ?x875) 0.0)))
 (let (($x1247 (not $x1343)))
 (let (($x7224 (<= (+ (* (- (/ 1.0 2.0)) A_3) ?x1879 ?x1325 ?x1886 (* (- 1.0) S_2) ?x1857 ?x1865 ?x1903) 0.0)))
 (let (($x3651 (<= (+ (* (- 1.0) A_3) S_4 A_2 (* (- 1.0) S_2) (* (- 2.0) C)) 0.0)))
 (let (($x1710 (<= (+ A_1 (* (- 1.0) S_2) (* (- 1.0) L_0)) 0.0)))
 (let ((?x803 (* (- 1.0) A_0)))
 (let ((?x773 (* (- 1.0) A_3)))
 (let (($x7105 (<= (+ ?x773 ?x1325 A_1 S_3 (* (- 2.0) S_2) S_0 ?x803 A_2) 0.0)))
 (let (($x23524 (or $x1320 $x1710 $x7105 (<= (+ ?x773 A_2 S_3 (* (- 1.0) S_2) ?x1325) 0.0))))
 (let (($x2329 (<= (+ ?x1886 C ?x1908 (* (/ 1.0 2.0) A_4) ?x1857 ?x1865 (* (- (/ 1.0 2.0)) A_3)) 0.0)))
 (let (($x1907 (<= (+ ?x1879 ?x1877 ?x1886 (* (- (/ 1.0 2.0)) C) (* (- 1.0) S_2) ?x1857 ?x1865 ?x1903) 0.0)))
 (let (($x10030 (or $x1320 $x1710 $x1907 (<= (+ S_4 (* (- 1.0) A_4) A_2 (* (- 1.0) S_2) ?x1325) 0.0))))
 (let (($x9104 (<= (+ A_3 S_4 (* (- 1.0) A_4) ?x881 A_1 (* (- 1.0) S_2) ?x1325) 0.0)))
 (let ((?x1318 (* (- 1.0) S_2)))
 (let ((?x1905 (* (- (/ 1.0 2.0)) C)))
 (let ((?x1913 (* (- (/ 1.0 2.0)) A_2)))
 (let (($x4501 (<= (+ ?x1913 ?x1905 ?x1879 ?x1877 A_1 ?x1318 ?x1857 ?x1865 ?x2321) 0.0)))
 (let (($x8029 (or $x1303 (<= (+ A_1 C S_4 (* (- 1.0) A_4) ?x1243) 0.0) $x6172)))
 (let (($x3662 (<= (+ ?x773 S_4 A_2 ?x1243 ?x1325) 0.0)))
 (let (($x5341 (or $x1303 $x1722 $x3662 (<= (+ ?x773 S_4 A_1 (* (- 2.0) S_3) S_0 ?x803 A_2) 0.0))))
 (and (or $x1320 (<= (+ ?x773 S_3 A_1 ?x1318) 0.0)) (or $x1544 $x2167) (or $x1320 (<= (+ ?x773 S_4 A_1 ?x1318 ?x1325) 0.0)) (or $x1320 (<= (+ ?x881 A_1) 0.0)) (or $x1320 (<= (+ ?x1325 ?x881 S_3 A_1 ?x1318) 0.0)) (or $x1320 (<= (+ ?x881 (* (- 2.0) C) S_4 A_1 ?x1318) 0.0)) (or $x2167 $x3662) (or $x1303 $x3662 (<= (+ ?x773 S_4 A_1 ?x1243) 0.0)) (<= (+ (* (- 2.0) C) S_4 ?x1243) 0.0) $x5341 (or $x1320 (<= (+ A_1 S_4 (* (- 1.0) A_4) ?x1318) 0.0)) $x8029 (<= (+ (* (- 2.0) C) S_3 ?x1318) 0.0) (<= (+ S_4 ?x1318 (* (- 3.0) C)) 0.0) (or $x1247 $x1320 $x4501 $x9104) (or $x1343 $x1710 $x4501 $x9104) $x10030 (or $x2167 $x6172) (or $x1343 $x7118 (<= (+ A_1 ?x1318 S_0 ?x803) 0.0)) (or $x2167 $x4759 $x6845) (or $x1343 $x1710 $x2056 (not $x2329)) $x23524 (or $x4313 (<= (+ ?x881 S_2 ?x1328 A_0) 0.0) $x7543) (or $x1868 $x4313) (or $x1320 $x1710 $x3651 $x7224) (or $x1196 $x1512 $x1722 (not $x1774) $x1741 $x7041) (or $x1247 $x1320 $x2056 $x7118) (or $x1277 $x1539 $x1868 $x2451) $x50121 $x50402 (or $x1303 $x1544 $x1722 $x10309) (or $x1303 $x1544 (<= (+ ?x773 C A_1) 0.0)) $x48156 $x49102 (or $x4313 $x7250 $x7543) $x49980 (or $x1277 $x1307 $x1709 $x1868 $x4540 $x4949) (or $x1345 $x1709 $x1868 $x3051 $x4540 $x4949) (or $x1345 $x3018 $x4947 $x5108 $x7041) (or $x2167 $x4759 $x7041) (or $x1277 $x1868 $x2451 (<= (+ A_2 C (* (- 1.0) A_4)) 0.0)) (or $x1277 $x1512 $x1741 $x1868 $x2199 $x3051) (or $x1196 $x1512 $x1774 $x3859 $x7041) (or $x1196 $x1709 $x3018 $x3859 $x7041) (or $x1196 $x1345 $x1774 $x3018 $x4947 $x7041) (or $x1303 $x1307 $x4947 $x5108 $x7041) $x51062 $x22163 (or $x1277 $x1539 $x1868 $x2199 $x2575) (or $x1868 $x2131 $x4799) $x48572 (<= (+ ?x1328 S_0) 0.0) (<= (+ ?x803 ?x1325 L_0 S_1) 0.0) (<= (+ ?x803 (* (- 2.0) C) L_0 S_2) 0.0) (<= (+ ?x803 (* (- 3.0) C) L_0 S_3) 0.0) (<= (+ S_4 ?x803 (* (- 4.0) C) L_0) 0.0) (<= (+ ?x773 S_3 L_0) 0.0) (<= (+ S_4 (* (- 1.0) A_4) L_0) 0.0) (<= (+ ?x1314 S_3) 0.0) (<= (+ ?x875 S_3 (* (- 2.0) C) L_0) 0.0) (<= (+ S_0 L_0 ?x803) 0.0) (<= (+ ?x875 S_1 L_0) 0.0) (<= (+ S_4 ?x875 (* (- 3.0) C) L_0) 0.0) (<= (+ ?x1243 S_2) 0.0) (<= (+ ?x1318 S_1) 0.0) (<= (+ ?x875 ?x1325 S_2 L_0) 0.0) (<= (+ ?x881 S_2 L_0) 0.0) (<= (+ (* (- 2.0) C) S_4 L_0 ?x881) 0.0) (<= (+ ?x881 ?x1325 S_3 L_0) 0.0) (<= (+ ?x773 S_4 ?x1325 L_0) 0.0)))))))))))))))))))))))))))))))))))))))))))))))))))))))))))))))))))))))))))))))))))))))))
(check-sat)
